c read Graph
c width = 99
c time = 1032 ms
c width = 11
c time = 1315 ms
c width = 10
c time = 1457 ms
c width = 9
c time = 1474 ms
c width = 9
c time = 3540 ms
s td 101 10 112
b 1 1 2 15
b 2 2 3 15 16
b 3 12 13 27 28
b 4 3 15 16 29
b 5 12 27 28 42
b 6 71 85 86 100
b 7 84 97 98 111
b 8 71 86 100 101
b 9 84 97 110 111
b 10 3 4 5 18
b 11 3 5 17 18 30 43
b 12 5 17 18 30 32 43 45
b 13 5 18 30 32 43 45 58
b 14 5 18 32 43 45 58 71
b 15 5 18 20 32 33 45 58 71
b 16 5 20 32 33 45 46 58 71
b 17 5 20 33 45 46 58 59 71
b 18 5 20 33 46 58 59 71 74 89 102
b 19 5 20 33 46 59 61 74 89 102
b 20 5 20 33 46 61 74 76 89 102
b 21 5 20 33 46 48 61 76 89 102
b 22 5 20 33 35 48 61 76 89 102
b 23 5 20 35 48 61 63 76 89 102
b 24 48 61 62 63 76
b 25 5 20 35 48 50 63 76 89 102
b 26 35 48 49 50 63
b 27 5 9 20 22 35 50 63 76 89 102
b 28 9 22 35 37 50 63 76 89 102
b 29 9 22 24 37 50 63 76 89 102
b 30 9 22 23 24 37
b 31 9 24 37 50 63 76 89 91 102 106
b 32 9 24 37 50 63 76 91 102 106
b 33 9 24 37 50 63 76 78 91 106
b 34 63 76 77 78 91
b 35 9 24 37 50 63 78 91 93 106
b 36 9 24 37 50 63 65 78 93 106
b 37 50 63 64 65 78
b 38 9 24 37 50 65 78 80 93 106
b 39 65 78 79 80 93
b 40 9 24 37 50 52 65 80 93 106
b 41 37 50 51 52 65
b 42 78 91 92 93 106
b 43 76 89 91 102 104 106
b 44 89 102 103 104
b 45 91 104 105 106
b 46 76 89 90 91 104
b 47 22 35 36 37 50
b 48 5 7 9 20 22 35
b 49 5 6 7 20
b 50 7 8 9 22
b 51 7 20 21 22 35
b 52 20 33 34 35 48
b 53 33 46 47 48 61
b 54 61 74 75 76 89
b 55 46 59 60 61 74
b 56 58 59 71 74 87 89 102
b 57 58 59 71 72 74 87 102
b 58 71 72 87 101 102
b 59 71 72 86 87 101
b 60 59 72 73 74 87
b 61 74 87 88 89 102
b 62 5 18 19 20 33
b 63 43 57 58 71
b 64 30 43 44 45 58
b 65 17 30 31 32 45
b 66 3 17 29 30 43
b 67 3 16 17 29 30
b 68 39 52 53 54 67
b 69 9 24 37 52 65 67 80 93 106
b 70 9 24 37 39 52 67 80 93 106
b 71 9 24 39 52 54 67 80 93 106
b 72 9 24 39 54 56 67 69 80 93 106
b 73 52 65 66 67 80
b 74 54 56 67 69 80 93 106 108
b 75 54 56 67 69 80 93 95 108
b 76 80 93 94 95 108
b 77 54 56 67 69 80 82 95 108
b 78 56 69 82 95 108 110
b 79 95 108 109 110
b 80 56 69 82 84 95 110
b 81 69 82 84 95 96 110
b 82 69 82 83 84 96 110
b 83 83 84 96 97 110
b 84 56 69 70 84
b 85 67 80 81 82 95
b 86 54 67 68 69 82
b 87 93 106 107 108
b 88 9 11 24 39 54 56 69
b 89 9 10 11 24
b 90 11 24 39 41 54 56 69
b 91 11 24 26 39 41 54 56
b 92 11 26 41 42 56
b 93 11 12 26 41 42
b 94 12 26 27 41 42
b 95 11 24 25 26 39
b 96 26 39 40 41 54
b 97 41 54 55 56 69
b 98 24 37 38 39 52
b 99 98 111 112
b 100 85 99 100
b 101 13 14 28
1 2
2 4
3 101
3 5
4 67
5 94
6 100
6 8
7 99
7 9
8 59
9 83
10 11
11 66
11 12
12 65
12 13
13 64
13 14
14 63
14 15
15 62
15 16
16 17
17 18
18 56
18 19
19 55
19 20
20 54
20 21
21 53
21 22
22 23
22 52
23 25
23 24
25 27
25 26
27 48
27 28
28 47
28 29
29 31
29 30
31 43
31 32
32 33
33 34
33 35
35 42
35 36
36 37
36 38
38 39
38 40
40 69
40 41
43 44
43 45
43 46
48 49
48 50
48 51
56 61
56 57
57 58
57 60
58 59
66 67
68 71
69 73
69 70
70 98
70 71
71 72
72 74
72 88
74 87
74 75
75 76
75 77
77 86
77 85
77 78
78 79
78 80
80 84
80 81
81 82
82 83
88 89
88 90
90 97
90 91
91 92
91 95
91 96
92 93
93 94
